(set-logic ALL)
(declare-fun seed0_url () String)
(assert (and (or (and (and (and (and (and (and (and (and (and (and (and (and (and (and (and (and (and (and (and (and (and (and (and (and (and (and (and (and (not (= (ite (str.contains (str.substr seed0_url 0 (- (str.indexof seed0_url ":" 0) 0)) "H") 1 0) 0)) (= (ite (str.contains (str.substr seed0_url 0 (- (str.indexof seed0_url ":" 0) 0)) "G") 1 0) 0)) (= (ite (str.contains (str.substr seed0_url 0 (- (str.indexof seed0_url ":" 0) 0)) "F") 1 0) 0)) (= (ite (str.contains (str.substr seed0_url 0 (- (str.indexof seed0_url ":" 0) 0)) "E") 1 0) 0)) (= (ite (str.contains (str.substr seed0_url 0 (- (str.indexof seed0_url ":" 0) 0)) "D") 1 0) 0)) (= (ite (str.contains (str.substr seed0_url 0 (- (str.indexof seed0_url ":" 0) 0)) "C") 1 0) 0)) (= (ite (str.contains (str.substr seed0_url 0 (- (str.indexof seed0_url ":" 0) 0)) "B") 1 0) 0)) (= (ite (str.contains (str.substr seed0_url 0 (- (str.indexof seed0_url ":" 0) 0)) "A") 1 0) 0)) (= (ite (= (str.len (str.substr seed0_url (+ (str.indexof seed0_url ":" 0) 1) (- (str.len seed0_url) (+ (str.indexof seed0_url ":" 0) 1)))) 0) 1 0) 0)) (not (= (ite (str.contains seed0_url ":") 1 0) 0))) (= (ite (= (str.len seed0_url) 0) 1 0) 0)) (not (= (ite (str.contains seed0_url ":") 1 0) 0))) (>= 0 0)) (>= (- (str.indexof seed0_url ":" 0) 0) 0)) (>= 0 0)) (>= (- (str.indexof seed0_url ":" 0) 0) 0)) (>= 0 0)) (>= (- (str.indexof seed0_url ":" 0) 0) 0)) (>= 0 0)) (>= (- (str.indexof seed0_url ":" 0) 0) 0)) (>= 0 0)) (>= (- (str.indexof seed0_url ":" 0) 0) 0)) (>= 0 0)) (>= (- (str.indexof seed0_url ":" 0) 0) 0)) (>= 0 0)) (>= (- (str.indexof seed0_url ":" 0) 0) 0)) (>= 0 0)) (>= (- (str.indexof seed0_url ":" 0) 0) 0)) (>= (+ (str.indexof seed0_url ":" 0) 1) 0)) (and (str.contains (str.++ seed0_url "lReC9vdWEcrqfm") (str.++ seed0_url "s7vGHWiClEj63Y1M")) (str.<= (str.++ seed0_url "") (str.++ seed0_url "ONb7y")))) (or (>= (- (str.len seed0_url) (+ (str.indexof seed0_url ":" 0) 1)) 0) (=> (str.prefixof (str.++ seed0_url "DMpZ8XUfaS4j") (str.++ seed0_url "H2KBixZ5Raukd8mnt96")) (str.prefixof (str.++ seed0_url "6WMej12yU3HTm") (str.++ seed0_url "aedkfbTP2pI5SVnv"))))))
(check-sat)
(exit)